experiment/data/lkh-res/Vrp-Set-P-n101/Vrp-Set-P-n101-lkh/0.lkh1.tour
NAME : 0.69119.tour
COMMENT : Length = 69119
COMMENT : Found by LKH-3 [Keld Helsgaun] Tue Apr  9 02:35:18 2024
TYPE : TOUR
DIMENSION : 104
TOUR_SECTION
1
7
97
100
94
60
93
99
38
101
92
86
62
17
87
39
45
15
43
44
16
58
3
88
98
96
95
103
90
19
84
61
6
85
18
46
9
47
48
37
50
65
64
91
33
21
67
66
72
36
35
79
80
4
78
77
29
102
28
70
2
51
34
82
10
52
31
71
11
63
12
20
49
83
8
89
32
53
104
54
27
13
81
69
30
25
55
5
56
26
40
68
24
57
76
42
23
75
73
74
22
41
59
14
-1
EOF
